Version identifier: 12.10.0.0 | 2019-11-26 | 843d4de
CPXPARAM_WorkMem                                 16384
CPXPARAM_MIP_Limits_TreeMemory                   24576
Tried aggregator 2 times.
MIP Presolve modified 16 coefficients.
Aggregator did 30 substitutions.
Reduced MIP has 134 rows, 160 columns, and 620 nonzeros.
Reduced MIP has 160 binaries, 0 generals, 0 SOSs, and 0 indicators.
Presolve time = 0,00 sec. (0,74 ticks)
Found incumbent of value 420,000000 after 0,00 sec. (1,15 ticks)
Probing time = 0,00 sec. (0,22 ticks)
Tried aggregator 1 time.
Detecting symmetries...
MIP Presolve eliminated 32 rows and 0 columns.
MIP Presolve added 64 rows and 0 columns.
Reduced MIP has 166 rows, 160 columns, and 652 nonzeros.
Reduced MIP has 160 binaries, 0 generals, 0 SOSs, and 0 indicators.
Presolve time = 0,00 sec. (0,78 ticks)
Probing time = 0,00 sec. (0,22 ticks)
Clique table members: 430.
MIP emphasis: balance optimality and feasibility.
MIP search method: dynamic search.
Parallel mode: deterministic, using up to 16 threads.
Root relaxation solution time = 0,00 sec. (0,50 ticks)

        Nodes                                         Cuts/
   Node  Left     Objective  IInf  Best Integer    Best Bound    ItCnt     Gap

*     0+    0                          420,0000        0,0000           100,00%
*     0+    0                          197,0000        0,0000           100,00%
      0     0      105,0000    76      197,0000      105,0000       71   46,70%
      0     0      107,1835    76      197,0000     Cuts: 116      112   45,59%
      0     0      110,2381    76      197,0000     Cuts: 122      136   44,04%
      0     0      110,6137    76      197,0000      Cuts: 93      154   43,85%
      0     0      110,9981    76      197,0000      Cuts: 23      180   43,66%
      0     0      111,2960    76      197,0000      Cuts: 45      200   43,50%
      0     0      111,5318    76      197,0000  ZeroHalf: 12      222   43,38%
      0     0      111,8642    76      197,0000      Cuts: 60      248   43,22%
      0     0      112,2591    76      197,0000      Cuts: 75      293   43,02%
      0     0      112,4729    76      197,0000      Cuts: 70      324   42,91%
      0     0      112,5245    76      197,0000   ZeroHalf: 3      342   42,88%
      0     0      112,7484    76      197,0000      Cuts: 65      379   42,77%
      0     0      112,8568    76      197,0000      Cuts: 56      404   42,71%
      0     0      113,0061    76      197,0000   ZeroHalf: 8      441   42,64%
      0     0      113,0740    76      197,0000      Cuts: 83      458   42,60%
      0     0      113,1283    76      197,0000       Cuts: 3      472   42,57%
      0     0      113,1373    76      197,0000   ZeroHalf: 6      478   42,57%
      0     0      113,1597    76      197,0000   ZeroHalf: 4      499   42,56%
      0     0      113,1743    76      197,0000   ZeroHalf: 4      514   42,55%
*     0+    0                          194,0000      113,1743            41,66%
*     0+    0                          186,0000      113,1743            39,15%
      0     2      113,1743   158      186,0000      147,0000      514   20,97%
Elapsed time = 0,21 sec. (93,37 ticks, tree = 0,02 MB, solutions = 4)

Clique cuts applied:  27
Cover cuts applied:  71
Mixed integer rounding cuts applied:  45
Zero-half cuts applied:  19
Gomory fractional cuts applied:  6

Root node processing (before b&c):
  Real time             =    0,21 sec. (93,07 ticks)
Parallel b&c, 16 threads:
  Real time             =    0,05 sec. (30,02 ticks)
  Sync time (average)   =    0,02 sec.
  Wait time (average)   =    0,00 sec.
                          ------------
Total (root+branch&cut) =    0,26 sec. (123,08 ticks)
